n = 33;
lu = [|-404, -134
      |46, 872
      |-326, 1071
      |225, 972
      |881, 1074
      |66, 734
      |-800, 145
      |177, 605
      |943, 1033
      |-874, 656
      |59, 219
      |-609, -83
      |-860, 218
      |-216, 76
      |-818, 409
      |-585, 228
      |-95, 1011
      |28, 222
      |-1063, 360
      |157, 1060
      |504, 525
      |-639, -330
      |-955, 404
      |-830, -582
      |-707, -479
      |-599, 207
      |-1077, -854
      |39, 590
      |-258, 337
      |-300, 502
      |786, 850
      |377, 771
      |172, 902|];
